(set-info :source |printed by MathSAT|)
(declare-fun call_Sofar.flby.next () Bool)
(declare-fun toofast.next () Bool)
(declare-fun call_voiture.toofast () Bool)
(declare-fun env () Bool)
(declare-fun call_voiture.ite.next () Int)
(declare-fun call_voiture.meter () Bool)
(declare-fun param_s () Bool)
(declare-fun call_voiture.speed.next () Int)
(declare-fun call_voiture.speed () Int)
(declare-fun move.next () Bool)
(declare-fun call_voiture.ite3.next () Int)
(declare-fun call_voiture.stop () Bool)
(declare-fun call_voiture.move () Bool)
(declare-fun call_voiture.flby3 () Bool)
(declare-fun second.next () Bool)
(declare-fun call_voiture.flby2 () Bool)
(declare-fun call_voiture.flby3.next () Bool)
(declare-fun call_Sofar.Sofar () Bool)
(declare-fun bump.next () Bool)
(declare-fun param_m () Bool)
(declare-fun call_Sofar.flby () Bool)
(declare-fun speed () Int)
(declare-fun param_s.next () Bool)
(declare-fun move () Bool)
(declare-fun call_voiture.flby6 () Int)
(declare-fun meter () Bool)
(declare-fun _OK_ () Bool)
(declare-fun speed.next () Int)
(declare-fun call_voiture.second () Bool)
(declare-fun dist () Int)
(declare-fun call_voiture.move.next () Bool)
(declare-fun toofast () Bool)
(declare-fun call_voiture.toofast.next () Bool)
(declare-fun second () Bool)
(declare-fun env.next () Bool)
(declare-fun call_excludes2.excludes () Bool)
(declare-fun call_voiture.flby6.next () Int)
(declare-fun call_voiture.ite4.next () Int)
(declare-fun stop.next () Bool)
(declare-fun bump () Bool)
(declare-fun call_voiture.flby.next () Bool)
(declare-fun time.next () Int)
(declare-fun call_voiture.bump () Bool)
(declare-fun call_voiture.dist () Int)
(declare-fun call_voiture.stop.next () Bool)
(declare-fun dist.next () Int)
(declare-fun call_voiture.flby4.next () Int)
(declare-fun _OK_.next () Bool)
(declare-fun call_voiture.dist.next () Int)
(declare-fun call_voiture.flby5.next () Int)
(declare-fun meter.next () Bool)
(declare-fun stop () Bool)
(declare-fun call_voiture.time.next () Int)
(declare-fun call_Sofar.Sofar.next () Bool)
(declare-fun call_voiture.flby2.next () Bool)
(declare-fun call_voiture.time () Int)
(declare-fun param_m.next () Bool)
(declare-fun call_voiture.ite3 () Int)
(declare-fun call_voiture.flby () Bool)
(declare-fun call_voiture.ite2.next () Int)
(declare-fun call_voiture.meter.next () Bool)
(declare-fun call_excludes2.excludes.next () Bool)
(declare-fun call_voiture.bump.next () Bool)
(declare-fun call_voiture.second.next () Bool)
(declare-fun time () Int)
(declare-fun call_voiture.flby5 () Int)
(declare-fun call_voiture.flby4 () Int)
(declare-fun call_voiture.ite2 () Int)
(define-fun .def_516 () Bool (= call_Sofar.flby.next call_Sofar.Sofar.next))
(define-fun .def_512 () Bool (and param_s.next param_m.next))
(define-fun .def_513 () Bool (not .def_512))
(define-fun .def_514 () Bool (= call_excludes2.excludes.next .def_513))
(define-fun .def_510 () Bool (= call_voiture.meter.next call_voiture.flby.next))
(define-fun .def_508 () Bool (= call_voiture.second.next call_voiture.flby2.next))
(define-fun .def_505 () Bool (= call_voiture.move.next call_voiture.flby3.next))
(define-fun .def_502 () Bool (= call_voiture.ite3.next 0))
(define-fun .def_498 () Bool (not call_voiture.move.next))
(define-fun .def_499 () Bool (or call_voiture.second.next .def_498))
(define-fun .def_501 () Bool (not .def_499))
(define-fun .def_503 () Bool (or .def_501 .def_502))
(define-fun .def_497 () Bool (= call_voiture.ite2.next call_voiture.ite3.next))
(define-fun .def_500 () Bool (or .def_497 .def_499))
(define-fun .def_504 () Bool (and .def_500 .def_503))
(define-fun .def_506 () Bool (and .def_504 .def_505))
(define-fun .def_495 () Bool (= call_voiture.flby6.next call_voiture.time.next))
(define-fun .def_493 () Bool (= call_voiture.flby5.next call_voiture.speed.next))
(define-fun .def_491 () Bool (= call_voiture.flby4.next call_voiture.dist.next))
(define-fun .def_488 () Bool (= call_voiture.dist.next 10))
(define-fun .def_489 () Bool (= call_voiture.bump.next .def_488))
(define-fun .def_485 () Bool (<= 4 call_voiture.time.next))
(define-fun .def_486 () Bool (= call_voiture.stop.next .def_485))
(define-fun .def_482 () Bool (<= 3 call_voiture.speed.next))
(define-fun .def_483 () Bool (= call_voiture.toofast.next .def_482))
(define-fun .def_480 () Bool (= env.next call_Sofar.Sofar.next))
(define-fun .def_477 () Bool (= call_voiture.meter.next meter.next))
(define-fun .def_474 () Bool (= call_voiture.second.next second.next))
(define-fun .def_471 () Bool (= call_voiture.move.next move.next))
(define-fun .def_468 () Bool (= time.next call_voiture.time.next))
(define-fun .def_464 () Bool (= speed.next call_voiture.speed.next))
(define-fun .def_461 () Bool (= dist.next call_voiture.dist.next))
(define-fun .def_457 () Bool (= bump.next call_voiture.bump.next))
(define-fun .def_453 () Bool (= stop.next call_voiture.stop.next))
(define-fun .def_449 () Bool (= toofast.next call_voiture.toofast.next))
(define-fun .def_444 () Bool (<= 0 speed.next))
(define-fun .def_442 () Bool (not env.next))
(define-fun .def_445 () Bool (or .def_442 .def_444))
(define-fun .def_446 () Bool (= _OK_.next .def_445))
(define-fun .def_450 () Bool (and .def_446 .def_449))
(define-fun .def_454 () Bool (and .def_450 .def_453))
(define-fun .def_458 () Bool (and .def_454 .def_457))
(define-fun .def_462 () Bool (and .def_458 .def_461))
(define-fun .def_465 () Bool (and .def_462 .def_464))
(define-fun .def_469 () Bool (and .def_465 .def_468))
(define-fun .def_472 () Bool (and .def_469 .def_471))
(define-fun .def_475 () Bool (and .def_472 .def_474))
(define-fun .def_478 () Bool (and .def_475 .def_477))
(define-fun .def_481 () Bool (and .def_478 .def_480))
(define-fun .def_484 () Bool (and .def_481 .def_483))
(define-fun .def_487 () Bool (and .def_484 .def_486))
(define-fun .def_490 () Bool (and .def_487 .def_489))
(define-fun .def_492 () Bool (and .def_490 .def_491))
(define-fun .def_494 () Bool (and .def_492 .def_493))
(define-fun .def_496 () Bool (and .def_494 .def_495))
(define-fun .def_507 () Bool (and .def_496 .def_506))
(define-fun .def_509 () Bool (and .def_507 .def_508))
(define-fun .def_511 () Bool (and .def_509 .def_510))
(define-fun .def_515 () Bool (and .def_511 .def_514))
(define-fun .def_517 () Bool (and .def_515 .def_516))
(define-fun .def_359 () Bool (= call_Sofar.Sofar call_Sofar.flby))
(define-fun .def_353 () Bool (and param_s param_m))
(define-fun .def_354 () Bool (not .def_353))
(define-fun .def_356 () Bool (= .def_354 call_excludes2.excludes))
(define-fun .def_349 () Bool (= call_voiture.meter call_voiture.flby))
(define-fun .def_346 () Bool (= call_voiture.second call_voiture.flby2))
(define-fun .def_342 () Bool (= call_voiture.move call_voiture.flby3))
(define-fun .def_338 () Bool (= call_voiture.ite3 0))
(define-fun .def_334 () Bool (not call_voiture.move))
(define-fun .def_335 () Bool (or call_voiture.second .def_334))
(define-fun .def_337 () Bool (not .def_335))
(define-fun .def_339 () Bool (or .def_337 .def_338))
(define-fun .def_333 () Bool (= call_voiture.ite2 call_voiture.ite3))
(define-fun .def_336 () Bool (or .def_333 .def_335))
(define-fun .def_340 () Bool (and .def_336 .def_339))
(define-fun .def_343 () Bool (and .def_340 .def_342))
(define-fun .def_329 () Bool (= call_voiture.time call_voiture.flby6))
(define-fun .def_326 () Bool (= call_voiture.speed call_voiture.flby5))
(define-fun .def_323 () Bool (= call_voiture.dist call_voiture.flby4))
(define-fun .def_319 () Bool (= call_voiture.dist 10))
(define-fun .def_320 () Bool (= call_voiture.bump .def_319))
(define-fun .def_316 () Bool (<= 4 call_voiture.time))
(define-fun .def_317 () Bool (= call_voiture.stop .def_316))
(define-fun .def_313 () Bool (<= 3 call_voiture.speed))
(define-fun .def_314 () Bool (= call_voiture.toofast .def_313))
(define-fun .def_311 () Bool (= env call_Sofar.Sofar))
(define-fun .def_308 () Bool (= meter call_voiture.meter))
(define-fun .def_304 () Bool (= second call_voiture.second))
(define-fun .def_300 () Bool (= move call_voiture.move))
(define-fun .def_296 () Bool (= time call_voiture.time))
(define-fun .def_292 () Bool (= speed call_voiture.speed))
(define-fun .def_289 () Bool (= dist call_voiture.dist))
(define-fun .def_285 () Bool (= bump call_voiture.bump))
(define-fun .def_281 () Bool (= stop call_voiture.stop))
(define-fun .def_277 () Bool (= toofast call_voiture.toofast))
(define-fun .def_272 () Bool (<= 0 speed))
(define-fun .def_270 () Bool (not env))
(define-fun .def_273 () Bool (or .def_270 .def_272))
(define-fun .def_274 () Bool (= _OK_ .def_273))
(define-fun .def_278 () Bool (and .def_274 .def_277))
(define-fun .def_282 () Bool (and .def_278 .def_281))
(define-fun .def_286 () Bool (and .def_282 .def_285))
(define-fun .def_290 () Bool (and .def_286 .def_289))
(define-fun .def_293 () Bool (and .def_290 .def_292))
(define-fun .def_297 () Bool (and .def_293 .def_296))
(define-fun .def_301 () Bool (and .def_297 .def_300))
(define-fun .def_305 () Bool (and .def_301 .def_304))
(define-fun .def_309 () Bool (and .def_305 .def_308))
(define-fun .def_312 () Bool (and .def_309 .def_311))
(define-fun .def_315 () Bool (and .def_312 .def_314))
(define-fun .def_318 () Bool (and .def_315 .def_317))
(define-fun .def_321 () Bool (and .def_318 .def_320))
(define-fun .def_324 () Bool (and .def_321 .def_323))
(define-fun .def_327 () Bool (and .def_324 .def_326))
(define-fun .def_330 () Bool (and .def_327 .def_329))
(define-fun .def_344 () Bool (and .def_330 .def_343))
(define-fun .def_347 () Bool (and .def_344 .def_346))
(define-fun .def_350 () Bool (and .def_347 .def_349))
(define-fun .def_357 () Bool (and .def_350 .def_356))
(define-fun .def_360 () Bool (and .def_357 .def_359))
(define-fun .def_518 () Bool (and .def_360 .def_517))
(define-fun .def_436 () Bool (and call_Sofar.Sofar call_excludes2.excludes.next))
(define-fun .def_438 () Bool (= .def_436 call_Sofar.flby.next))
(define-fun .def_433 () Bool (= call_voiture.ite4.next call_voiture.flby6.next))
(define-fun .def_430 () Bool (= call_voiture.flby5.next call_voiture.ite3.next))
(define-fun .def_426 () Bool (= call_voiture.ite.next call_voiture.flby4.next))
(define-fun .def_420 () Bool (not call_voiture.bump))
(define-fun .def_418 () Bool (not call_voiture.toofast))
(define-fun .def_416 () Bool (not call_voiture.stop))
(define-fun .def_417 () Bool (and call_voiture.move .def_416))
(define-fun .def_419 () Bool (and .def_417 .def_418))
(define-fun .def_421 () Bool (and .def_419 .def_420))
(define-fun .def_423 () Bool (= .def_421 call_voiture.flby3.next))
(define-fun .def_414 () Bool (= param_s.next call_voiture.flby2.next))
(define-fun .def_407 () Bool (not param_s.next))
(define-fun .def_409 () Bool (and .def_407 param_m.next))
(define-fun .def_411 () Bool (= .def_409 call_voiture.flby.next))
(define-fun .def_402 () Bool (not call_voiture.second.next))
(define-fun .def_399 () Int (* (- 1) call_voiture.ite4.next))
(define-fun .def_400 () Int (+ call_voiture.time .def_399))
(define-fun .def_401 () Bool (= .def_400 (- 1)))
(define-fun .def_403 () Bool (or .def_401 .def_402))
(define-fun .def_396 () Bool (= call_voiture.time call_voiture.ite4.next))
(define-fun .def_398 () Bool (or .def_396 call_voiture.second.next))
(define-fun .def_404 () Bool (and .def_398 .def_403))
(define-fun .def_389 () Int (* (- 1) call_voiture.ite.next))
(define-fun .def_390 () Int (+ call_voiture.dist .def_389))
(define-fun .def_391 () Bool (= .def_390 (- 1)))
(define-fun .def_378 () Bool (and call_voiture.move.next call_voiture.meter.next))
(define-fun .def_383 () Bool (not .def_378))
(define-fun .def_392 () Bool (or .def_383 .def_391))
(define-fun .def_387 () Bool (= call_voiture.dist call_voiture.ite.next))
(define-fun .def_388 () Bool (or .def_378 .def_387))
(define-fun .def_393 () Bool (and .def_388 .def_392))
(define-fun .def_380 () Int (* (- 1) call_voiture.ite2.next))
(define-fun .def_381 () Int (+ call_voiture.speed .def_380))
(define-fun .def_382 () Bool (= .def_381 2))
(define-fun .def_384 () Bool (or .def_382 .def_383))
(define-fun .def_375 () Bool (= call_voiture.speed call_voiture.ite2.next))
(define-fun .def_379 () Bool (or .def_375 .def_378))
(define-fun .def_385 () Bool (and .def_379 .def_384))
(define-fun .def_394 () Bool (and .def_385 .def_393))
(define-fun .def_405 () Bool (and .def_394 .def_404))
(define-fun .def_412 () Bool (and .def_405 .def_411))
(define-fun .def_415 () Bool (and .def_412 .def_414))
(define-fun .def_424 () Bool (and .def_415 .def_423))
(define-fun .def_427 () Bool (and .def_424 .def_426))
(define-fun .def_431 () Bool (and .def_427 .def_430))
(define-fun .def_434 () Bool (and .def_431 .def_433))
(define-fun .def_439 () Bool (and .def_434 .def_438))
(define-fun .def_519 () Bool (and .def_439 .def_518))
(assert .def_519)
